800 800
400.00 100.00
366.67 166.67
333.33 233.33
300.00 300.00
266.67 366.67
233.33 433.33
200.00 500.00
166.67 566.67
133.33 633.33
100.00 700.00
100.00 700.00
166.67 700.00
233.33 700.00
300.00 700.00
366.67 700.00
433.33 700.00
500.00 700.00
566.67 700.00
633.33 700.00
700.00 700.00
700.00 700.00
666.67 633.33
633.33 566.67
600.00 500.00
566.67 433.33
533.33 366.67
500.00 300.00
466.67 233.33
433.33 166.67
400.00 100.00
